(set-logic QF_IDL)
(set-info :smt-lib-version 2.0)
(set-info :category "industrial")
(set-info :status sat)
(declare-fun var_1 () Bool)
(declare-fun var_2 () Bool)
(declare-fun var_3 () Bool)
(declare-fun var_4 () Bool)
(declare-fun var_5 () Bool)
(declare-fun var_6 () Bool)
(declare-fun var_7 () Bool)
(declare-fun var_8 () Bool)
(declare-fun var_9 () Bool)
(declare-fun var_10 () Bool)
(declare-fun var_11 () Bool)
(declare-fun var_12 () Bool)
(declare-fun var_13 () Bool)
(declare-fun var_14 () Bool)
(declare-fun var_15 () Bool)
(declare-fun var_16 () Bool)
(declare-fun var_17 () Bool)
(declare-fun var_18 () Bool)
(declare-fun var_19 () Bool)
(declare-fun var_20 () Bool)
(declare-fun var_21 () Bool)
(declare-fun var_22 () Bool)
(declare-fun var_23 () Bool)
(declare-fun var_24 () Bool)
(declare-fun var_25 () Bool)
(declare-fun var_26 () Bool)
(declare-fun var_27 () Bool)
(declare-fun var_28 () Bool)
(declare-fun var_29 () Bool)
(declare-fun var_30 () Bool)
(declare-fun var_31 () Bool)
(declare-fun var_32 () Bool)
(declare-fun var_33 () Bool)
(declare-fun var_34 () Bool)
(declare-fun var_35 () Bool)
(declare-fun var_36 () Bool)
(declare-fun var_37 () Bool)
(declare-fun var_38 () Bool)
(declare-fun var_39 () Bool)
(declare-fun var_40 () Bool)
(declare-fun var_41 () Bool)
(declare-fun var_42 () Bool)
(declare-fun var_43 () Bool)
(declare-fun var_44 () Bool)
(declare-fun var_45 () Bool)
(declare-fun var_46 () Bool)
(declare-fun var_47 () Bool)
(declare-fun var_48 () Bool)
(declare-fun var_49 () Bool)
(declare-fun var_50 () Bool)
(declare-fun var_51 () Bool)
(declare-fun var_52 () Bool)
(declare-fun var_53 () Bool)
(declare-fun var_54 () Bool)
(declare-fun var_55 () Bool)
(declare-fun var_56 () Bool)
(declare-fun var_57 () Bool)
(declare-fun var_58 () Bool)
(declare-fun var_59 () Bool)
(declare-fun var_60 () Bool)
(declare-fun var_61 () Bool)
(declare-fun var_62 () Bool)
(declare-fun var_63 () Bool)
(declare-fun var_64 () Bool)
(declare-fun var_65 () Bool)
(declare-fun var_66 () Bool)
(declare-fun var_67 () Bool)
(declare-fun var_68 () Bool)
(declare-fun var_69 () Bool)
(declare-fun var_70 () Bool)
(declare-fun var_71 () Bool)
(declare-fun var_72 () Bool)
(declare-fun var_73 () Bool)
(declare-fun var_74 () Bool)
(declare-fun var_75 () Bool)
(declare-fun var_76 () Bool)
(declare-fun var_77 () Bool)
(declare-fun var_78 () Bool)
(declare-fun var_79 () Bool)
(declare-fun var_80 () Bool)
(declare-fun var_81 () Bool)
(declare-fun var_82 () Bool)
(declare-fun var_83 () Bool)
(declare-fun var_84 () Bool)
(declare-fun var_85 () Bool)
(declare-fun var_86 () Bool)
(declare-fun var_87 () Bool)
(declare-fun var_88 () Bool)
(declare-fun var_89 () Bool)
(declare-fun var_90 () Bool)
(declare-fun var_91 () Bool)
(declare-fun var_92 () Bool)
(declare-fun var_93 () Bool)
(declare-fun var_94 () Bool)
(declare-fun w_1 () Int)
(declare-fun var_95 () Bool)
(declare-fun var_96 () Bool)
(declare-fun w_2 () Int)
(declare-fun var_97 () Bool)
(declare-fun var_98 () Bool)
(declare-fun w_3 () Int)
(declare-fun var_99 () Bool)
(declare-fun var_100 () Bool)
(declare-fun w_4 () Int)
(declare-fun var_101 () Bool)
(declare-fun var_102 () Bool)
(declare-fun w_5 () Int)
(declare-fun var_103 () Bool)
(declare-fun var_104 () Bool)
(declare-fun w_6 () Int)
(declare-fun var_105 () Bool)
(declare-fun var_106 () Bool)
(declare-fun w_7 () Int)
(declare-fun var_107 () Bool)
(declare-fun var_108 () Bool)
(declare-fun w_8 () Int)
(declare-fun var_109 () Bool)
(declare-fun var_110 () Bool)
(declare-fun w_9 () Int)
(declare-fun var_111 () Bool)
(declare-fun var_112 () Bool)
(declare-fun w_10 () Int)
(declare-fun var_113 () Bool)
(declare-fun var_114 () Bool)
(declare-fun w_11 () Int)
(declare-fun var_115 () Bool)
(declare-fun var_116 () Bool)
(declare-fun w_12 () Int)
(declare-fun var_117 () Bool)
(declare-fun var_118 () Bool)
(declare-fun w_13 () Int)
(declare-fun var_119 () Bool)
(declare-fun var_120 () Bool)
(declare-fun w_14 () Int)
(declare-fun var_121 () Bool)
(declare-fun var_122 () Bool)
(declare-fun w_15 () Int)
(declare-fun var_123 () Bool)
(declare-fun var_124 () Bool)
(declare-fun w_16 () Int)
(declare-fun var_125 () Bool)
(declare-fun var_126 () Bool)
(declare-fun w_17 () Int)
(declare-fun var_127 () Bool)
(declare-fun var_128 () Bool)
(declare-fun w_18 () Int)
(declare-fun var_129 () Bool)
(declare-fun var_130 () Bool)
(declare-fun w_19 () Int)
(declare-fun var_131 () Bool)
(declare-fun var_132 () Bool)
(declare-fun w_20 () Int)
(declare-fun var_133 () Bool)
(declare-fun var_134 () Bool)
(declare-fun w_21 () Int)
(declare-fun var_135 () Bool)
(declare-fun var_136 () Bool)
(declare-fun w_22 () Int)
(declare-fun var_137 () Bool)
(declare-fun var_138 () Bool)
(declare-fun w_23 () Int)
(declare-fun var_139 () Bool)
(declare-fun var_140 () Bool)
(declare-fun w_24 () Int)
(declare-fun var_141 () Bool)
(declare-fun var_142 () Bool)
(declare-fun w_25 () Int)
(declare-fun var_143 () Bool)
(declare-fun var_144 () Bool)
(declare-fun w_26 () Int)
(declare-fun var_145 () Bool)
(declare-fun var_146 () Bool)
(declare-fun w_27 () Int)
(declare-fun var_147 () Bool)
(declare-fun var_148 () Bool)
(declare-fun w_28 () Int)
(declare-fun var_149 () Bool)
(declare-fun var_150 () Bool)
(declare-fun w_29 () Int)
(declare-fun var_151 () Bool)
(declare-fun var_152 () Bool)
(declare-fun w_30 () Int)
(declare-fun var_153 () Bool)
(declare-fun var_154 () Bool)
(declare-fun w_31 () Int)
(declare-fun var_155 () Bool)
(declare-fun var_156 () Bool)
(declare-fun w_32 () Int)
(declare-fun var_157 () Bool)
(declare-fun var_158 () Bool)
(declare-fun w_33 () Int)
(declare-fun var_159 () Bool)
(declare-fun var_160 () Bool)
(declare-fun w_34 () Int)
(declare-fun var_161 () Bool)
(declare-fun var_162 () Bool)
(declare-fun w_35 () Int)
(declare-fun var_163 () Bool)
(declare-fun var_164 () Bool)
(declare-fun w_36 () Int)
(declare-fun var_165 () Bool)
(declare-fun var_166 () Bool)
(declare-fun w_37 () Int)
(declare-fun var_167 () Bool)
(declare-fun var_168 () Bool)
(declare-fun w_38 () Int)
(declare-fun var_169 () Bool)
(declare-fun var_170 () Bool)
(declare-fun w_39 () Int)
(declare-fun var_171 () Bool)
(declare-fun var_172 () Bool)
(declare-fun w_40 () Int)
(declare-fun var_173 () Bool)
(declare-fun var_174 () Bool)
(declare-fun w_41 () Int)
(declare-fun var_175 () Bool)
(declare-fun var_176 () Bool)
(declare-fun w_42 () Int)
(declare-fun var_177 () Bool)
(declare-fun var_178 () Bool)
(declare-fun w_43 () Int)
(declare-fun var_179 () Bool)
(declare-fun var_180 () Bool)
(declare-fun w_44 () Int)
(declare-fun var_181 () Bool)
(declare-fun var_182 () Bool)
(declare-fun w_45 () Int)
(declare-fun var_183 () Bool)
(declare-fun var_184 () Bool)
(declare-fun w_46 () Int)
(declare-fun var_185 () Bool)
(declare-fun var_186 () Bool)
(declare-fun var_187 () Bool)
(declare-fun var_188 () Bool)
(declare-fun var_189 () Bool)
(declare-fun var_190 () Bool)
(declare-fun var_191 () Bool)
(declare-fun var_192 () Bool)
(declare-fun var_193 () Bool)
(declare-fun var_194 () Bool)
(declare-fun var_195 () Bool)
(declare-fun var_196 () Bool)
(declare-fun var_197 () Bool)
(declare-fun var_198 () Bool)
(declare-fun var_199 () Bool)
(declare-fun var_200 () Bool)
(declare-fun var_201 () Bool)
(declare-fun var_202 () Bool)
(declare-fun var_203 () Bool)
(declare-fun var_204 () Bool)
(declare-fun var_205 () Bool)
(declare-fun var_206 () Bool)
(declare-fun var_207 () Bool)
(declare-fun var_208 () Bool)
(declare-fun var_209 () Bool)
(declare-fun var_210 () Bool)
(declare-fun var_211 () Bool)
(declare-fun var_212 () Bool)
(declare-fun var_213 () Bool)
(declare-fun var_214 () Bool)
(declare-fun var_215 () Bool)
(declare-fun var_216 () Bool)
(declare-fun var_217 () Bool)
(declare-fun var_218 () Bool)
(declare-fun var_219 () Bool)
(declare-fun var_220 () Bool)
(declare-fun var_221 () Bool)
(declare-fun var_222 () Bool)
(declare-fun var_223 () Bool)
(declare-fun var_224 () Bool)
(declare-fun var_225 () Bool)
(declare-fun var_226 () Bool)
(declare-fun var_227 () Bool)
(declare-fun var_228 () Bool)
(declare-fun var_229 () Bool)
(declare-fun var_230 () Bool)
(declare-fun var_231 () Bool)
(declare-fun z () Int)
(assert (and
  (= var_1 true)
  (= var_2 true)
  (= var_3 true)
  (= var_4 true)
  (= var_5 true)
  (= var_6 true)
  (= var_7 true)
  (= var_8 true)
  (= var_9 true)
  (= var_10 true)
  (= var_11 true)
  (= var_12 true)
  (= var_13 true)
  (= var_14 true)
  (= var_15 true)
  (= var_16 true)
  (= var_17 true)
  (= var_18 true)
  (= var_19 true)
  (= var_20 true)
  (= var_21 true)
  (= var_22 true)
  (= var_23 true)
  (= var_24 true)
  (= var_25 true)
  (= var_26 true)
  (= var_27 true)
  (= var_28 true)
  (= var_29 true)
  (= var_30 true)
  (= var_31 true)
  (= var_32 true)
  (= var_33 true)
  (= var_34 true)
  (= var_35 true)
  (= var_36 true)
  (= var_37 true)
  (= var_38 true)
  (= var_39 true)
  (= var_40 true)
  (= var_41 true)
  (= var_42 true)
  (= var_43 true)
  (= var_44 true)
  (= var_45 true)
  (= var_46 true)
  (= var_47 true)
  (= var_48 true)
  (= var_49 true)
  (= var_50 true)
  (= var_51 true)
  (= var_52 true)
  (= var_53 true)
  (= var_54 true)
  (= var_55 true)
  (= var_56 true)
  (= var_57 true)
  (= var_58 true)
  (= var_59 true)
  (= var_60 true)
  (= var_61 true)
  (= var_62 true)
  (= var_63 true)
  (= var_64 true)
  (= var_65 true)
  (= var_66 true)
  (= var_67 true)
  (= var_68 true)
  (= var_69 true)
  (= var_70 true)
  (= var_71 true)
  (= var_72 true)
  (= var_73 true)
  (= var_74 true)
  (= var_75 true)
  (= var_76 true)
  (= var_77 true)
  (= var_78 true)
  (= var_79 true)
  (= var_80 true)
  (= var_81 true)
  (= var_82 true)
  (= var_83 true)
  (= var_84 true)
  (= var_85 true)
  (= var_86 true)
  (= var_87 true)
  (= var_88 true)
  (= var_89 true)
  (= var_90 true)
  (= var_91 true)
  (= var_92 true)
  (= var_93 true)
  (=> var_95 (= (- w_1 z) 1))
  (=> (not var_95) (= w_1 z))
  (= var_94 (>= (- w_1 z) 1))
  (= var_95 (not var_186))
  (=> var_97 (= (- w_2 z) 1))
  (=> (not var_97) (= w_2 z))
  (= var_96 (>= (- w_2 z) 1))
  (= var_97 (not var_187))
  (=> var_99 (= (- w_3 z) 1))
  (=> (not var_99) (= w_3 z))
  (= var_98 (>= (- w_3 z) 1))
  (= var_99 (not var_188))
  (=> var_101 (= (- w_4 z) 1))
  (=> (not var_101) (= w_4 z))
  (= var_100 (>= (- w_4 z) 1))
  (= var_101 (not var_189))
  (=> var_103 (= (- w_5 z) 1))
  (=> (not var_103) (= w_5 z))
  (= var_102 (>= (- w_5 z) 1))
  (= var_103 (not var_190))
  (=> var_105 (= (- w_6 z) 1))
  (=> (not var_105) (= w_6 z))
  (= var_104 (>= (- w_6 z) 1))
  (= var_105 (not var_191))
  (=> var_107 (= (- w_7 z) 1))
  (=> (not var_107) (= w_7 z))
  (= var_106 (>= (- w_7 z) 1))
  (= var_107 (not var_192))
  (=> var_109 (= (- w_8 z) 1))
  (=> (not var_109) (= w_8 z))
  (= var_108 (>= (- w_8 z) 1))
  (= var_109 (not var_193))
  (=> var_111 (= (- w_9 z) 1))
  (=> (not var_111) (= w_9 z))
  (= var_110 (>= (- w_9 z) 1))
  (= var_111 (not var_194))
  (=> var_113 (= (- w_10 z) 1))
  (=> (not var_113) (= w_10 z))
  (= var_112 (>= (- w_10 z) 1))
  (= var_113 (not var_195))
  (=> var_115 (= (- w_11 z) 1))
  (=> (not var_115) (= w_11 z))
  (= var_114 (>= (- w_11 z) 1))
  (= var_115 (not var_196))
  (=> var_117 (= (- w_12 z) 1))
  (=> (not var_117) (= w_12 z))
  (= var_116 (>= (- w_12 z) 1))
  (= var_117 (not var_197))
  (=> var_119 (= (- w_13 z) 1))
  (=> (not var_119) (= w_13 z))
  (= var_118 (>= (- w_13 z) 1))
  (= var_119 (not var_198))
  (=> var_121 (= (- w_14 z) 1))
  (=> (not var_121) (= w_14 z))
  (= var_120 (>= (- w_14 z) 1))
  (= var_121 (not var_199))
  (=> var_123 (= (- w_15 z) 1))
  (=> (not var_123) (= w_15 z))
  (= var_122 (>= (- w_15 z) 1))
  (= var_123 (not var_200))
  (=> var_125 (= (- w_16 z) 1))
  (=> (not var_125) (= w_16 z))
  (= var_124 (>= (- w_16 z) 1))
  (= var_125 (not var_201))
  (=> var_127 (= (- w_17 z) 1))
  (=> (not var_127) (= w_17 z))
  (= var_126 (>= (- w_17 z) 1))
  (= var_127 (not var_202))
  (=> var_129 (= (- w_18 z) 1))
  (=> (not var_129) (= w_18 z))
  (= var_128 (>= (- w_18 z) 1))
  (= var_129 (not var_203))
  (=> var_131 (= (- w_19 z) 1))
  (=> (not var_131) (= w_19 z))
  (= var_130 (>= (- w_19 z) 1))
  (= var_131 (not var_204))
  (=> var_133 (= (- w_20 z) 1))
  (=> (not var_133) (= w_20 z))
  (= var_132 (>= (- w_20 z) 1))
  (= var_133 (not var_205))
  (=> var_135 (= (- w_21 z) 1))
  (=> (not var_135) (= w_21 z))
  (= var_134 (>= (- w_21 z) 1))
  (= var_135 (not var_206))
  (=> var_137 (= (- w_22 z) 1))
  (=> (not var_137) (= w_22 z))
  (= var_136 (>= (- w_22 z) 1))
  (= var_137 (not var_207))
  (=> var_139 (= (- w_23 z) 1))
  (=> (not var_139) (= w_23 z))
  (= var_138 (>= (- w_23 z) 1))
  (= var_139 (not var_208))
  (=> var_141 (= (- w_24 z) 1))
  (=> (not var_141) (= w_24 z))
  (= var_140 (>= (- w_24 z) 1))
  (= var_141 (not var_209))
  (=> var_143 (= (- w_25 z) 1))
  (=> (not var_143) (= w_25 z))
  (= var_142 (>= (- w_25 z) 1))
  (= var_143 (not var_210))
  (=> var_145 (= (- w_26 z) 1))
  (=> (not var_145) (= w_26 z))
  (= var_144 (>= (- w_26 z) 1))
  (= var_145 (not var_211))
  (=> var_147 (= (- w_27 z) 1))
  (=> (not var_147) (= w_27 z))
  (= var_146 (>= (- w_27 z) 1))
  (= var_147 (not var_212))
  (=> var_149 (= (- w_28 z) 1))
  (=> (not var_149) (= w_28 z))
  (= var_148 (>= (- w_28 z) 1))
  (= var_149 (not var_213))
  (=> var_151 (= (- w_29 z) 1))
  (=> (not var_151) (= w_29 z))
  (= var_150 (>= (- w_29 z) 1))
  (= var_151 (not var_214))
  (=> var_153 (= (- w_30 z) 1))
  (=> (not var_153) (= w_30 z))
  (= var_152 (>= (- w_30 z) 1))
  (= var_153 (not var_215))
  (=> var_155 (= (- w_31 z) 1))
  (=> (not var_155) (= w_31 z))
  (= var_154 (>= (- w_31 z) 1))
  (= var_155 (not var_216))
  (=> var_157 (= (- w_32 z) 1))
  (=> (not var_157) (= w_32 z))
  (= var_156 (>= (- w_32 z) 1))
  (= var_157 (not var_217))
  (=> var_159 (= (- w_33 z) 1))
  (=> (not var_159) (= w_33 z))
  (= var_158 (>= (- w_33 z) 1))
  (= var_159 (not var_218))
  (=> var_161 (= (- w_34 z) 1))
  (=> (not var_161) (= w_34 z))
  (= var_160 (>= (- w_34 z) 1))
  (= var_161 (not var_219))
  (=> var_163 (= (- w_35 z) 1))
  (=> (not var_163) (= w_35 z))
  (= var_162 (>= (- w_35 z) 1))
  (= var_163 (not var_220))
  (=> var_165 (= (- w_36 z) 1))
  (=> (not var_165) (= w_36 z))
  (= var_164 (>= (- w_36 z) 1))
  (= var_165 (not var_221))
  (=> var_167 (= (- w_37 z) 1))
  (=> (not var_167) (= w_37 z))
  (= var_166 (>= (- w_37 z) 1))
  (= var_167 (not var_222))
  (=> var_169 (= (- w_38 z) 1))
  (=> (not var_169) (= w_38 z))
  (= var_168 (>= (- w_38 z) 1))
  (= var_169 (not var_223))
  (=> var_171 (= (- w_39 z) 1))
  (=> (not var_171) (= w_39 z))
  (= var_170 (>= (- w_39 z) 1))
  (= var_171 (not var_224))
  (=> var_173 (= (- w_40 z) 1))
  (=> (not var_173) (= w_40 z))
  (= var_172 (>= (- w_40 z) 1))
  (= var_173 (not var_225))
  (=> var_175 (= (- w_41 z) 1))
  (=> (not var_175) (= w_41 z))
  (= var_174 (>= (- w_41 z) 1))
  (= var_175 (not var_226))
  (=> var_177 (= (- w_42 z) 1))
  (=> (not var_177) (= w_42 z))
  (= var_176 (>= (- w_42 z) 1))
  (= var_177 (not var_227))
  (=> var_179 (= (- w_43 z) 1))
  (=> (not var_179) (= w_43 z))
  (= var_178 (>= (- w_43 z) 1))
  (= var_179 (not var_228))
  (=> var_181 (= (- w_44 z) 1))
  (=> (not var_181) (= w_44 z))
  (= var_180 (>= (- w_44 z) 1))
  (= var_181 (not var_229))
  (=> var_183 (= (- w_45 z) 1))
  (=> (not var_183) (= w_45 z))
  (= var_182 (>= (- w_45 z) 1))
  (= var_183 (not var_230))
  (=> var_185 (= (- w_46 z) 1))
  (=> (not var_185) (= w_46 z))
  (= var_184 (>= (- w_46 z) 1))
  (= var_185 (not var_231))
  (= var_186 (not var_95))
  (= var_187 (not var_97))
  (= var_188 (not var_99))
  (= var_189 (not var_101))
  (= var_190 (not var_103))
  (= var_191 (not var_105))
  (= var_192 (not var_107))
  (= var_193 (not var_109))
  (= var_194 (not var_111))
  (= var_195 (not var_113))
  (= var_196 (not var_115))
  (= var_197 (not var_117))
  (= var_198 (not var_119))
  (= var_199 (not var_121))
  (= var_200 (not var_123))
  (= var_201 (not var_125))
  (= var_202 (not var_127))
  (= var_203 (not var_129))
  (= var_204 (not var_131))
  (= var_205 (not var_133))
  (= var_206 (not var_135))
  (= var_207 (not var_137))
  (= var_208 (not var_139))
  (= var_209 (not var_141))
  (= var_210 (not var_143))
  (= var_211 (not var_145))
  (= var_212 (not var_147))
  (= var_213 (not var_149))
  (= var_214 (not var_151))
  (= var_215 (not var_153))
  (= var_216 (not var_155))
  (= var_217 (not var_157))
  (= var_218 (not var_159))
  (= var_219 (not var_161))
  (= var_220 (not var_163))
  (= var_221 (not var_165))
  (= var_222 (not var_167))
  (= var_223 (not var_169))
  (= var_224 (not var_171))
  (= var_225 (not var_173))
  (= var_226 (not var_175))
  (= var_227 (not var_177))
  (= var_228 (not var_179))
  (= var_229 (not var_181))
  (= var_230 (not var_183))
  (= var_231 (not var_185))
  var_1
  var_2
  var_3
  var_4
  var_5
  var_6
  var_7
  var_8
  var_9
  var_10
  var_11
  var_12
  var_13
  var_14
  var_15
  var_16
  var_17
  var_18
  var_19
  var_20
  var_21
  var_22
  var_23
  var_24
  var_25
  var_26
  var_27
  var_28
  var_29
  var_30
  var_31
  var_32
  var_33
  var_34
  var_35
  var_36
  var_37
  var_38
  var_39
  var_40
  var_41
  var_42
  var_43
  var_44
  var_45
  var_46
  var_47
  var_48
  var_49
  var_50
  var_51
  var_52
  var_53
  var_54
  var_55
  var_56
  var_57
  var_58
  var_59
  var_60
  var_61
  var_62
  var_63
  var_64
  var_65
  var_66
  var_67
  var_68
  var_69
  var_70
  var_71
  var_72
  var_73
  var_74
  var_75
  var_76
  var_77
  var_78
  var_79
  var_80
  var_81
  var_82
  var_83
  var_84
  var_85
  var_86
  var_87
  var_88
  var_89
  var_90
  var_91
  var_92
  var_93
  var_94
  var_95
  var_96
  var_97
  var_98
  var_99
  var_100
  var_101
  var_102
  var_103
  var_104
  var_105
  var_106
  var_107
  var_108
  var_109
  var_110
  var_111
  var_112
  var_113
  var_114
  var_115
  var_116
  var_117
  var_118
  var_119
  var_120
  var_121
  var_122
  var_123
  var_124
  var_125
  var_126
  var_127
  var_128
  var_129
  var_130
  var_131
  var_132
  var_133
  var_134
  var_135
  var_136
  var_137
  var_138
  var_139
  var_140
  var_141
  var_142
  var_143
  var_144
  var_145
  var_146
  var_147
  var_148
  var_149
  var_150
  var_151
  var_152
  var_153
  var_154
  var_155
  var_156
  var_157
  var_158
  var_159
  var_160
  var_161
  var_162
  var_163
  var_164
  var_165
  var_166
  var_167
  var_168
  var_169
  var_170
  var_171
  var_172
  var_173
  var_174
  var_175
  var_176
  var_177
  var_178
  var_179
  var_180
  var_181
  var_182
  var_183
  var_184
  var_185
))
(check-sat)
(exit)
